(set-logic QF_S)
(declare-fun x () String)
(declare-fun y () String)
(declare-fun z () Int)
(assert (not (= (str.replace "B" (str.replace "" x "A") y) (str.replace "B" (str.replace "" x y) y))))
(check-sat)
